clingo version 5.4.0
Reading from ...sets/logs/0_8x8_clingo/knights_tour.lp ...
Solving...
Answer: 1
occ(1,6,7) occ(1,8,3) occ(1,3,6) occ(1,2,8) occ(1,7,2) occ(1,3,1) occ(2,1,8) occ(3,5,5) coverage(6)
Optimization: -6
Answer: 2
occ(1,6,7) occ(1,8,3) occ(1,3,6) occ(1,2,8) occ(1,7,2) occ(1,3,1) occ(2,1,8) occ(3,5,5) coverage(15) occ(6,1,6) occ(7,1,5) occ(10,1,2) occ(8,2,4) occ(9,2,7) occ(14,2,1) occ(4,3,7) occ(5,3,4) occ(12,3,3) occ(13,3,8) occ(11,4,6) occ(16,4,2) occ(22,4,3) occ(20,5,1) occ(32,5,7) occ(46,5,4) occ(18,6,3) occ(24,6,2) occ(38,6,5) occ(26,7,4) occ(30,7,8) occ(34,7,6) occ(40,7,7) occ(44,7,3) occ(48,7,5) occ(28,8,6) occ(36,8,4) occ(42,8,5)
Optimization: -15
Answer: 3
occ(1,6,7) occ(1,8,3) occ(1,3,6) occ(1,2,8) occ(1,7,2) occ(1,3,1) occ(2,1,8) occ(3,5,5) coverage(35) occ(6,1,6) occ(10,1,2) occ(8,2,4) occ(44,2,2) occ(4,3,7) occ(12,3,3) occ(22,3,2) occ(23,3,5) occ(42,3,4) occ(9,4,5) occ(16,4,2) occ(21,4,3) occ(24,4,4) occ(25,4,7) occ(34,4,1) occ(40,4,6) occ(7,5,7) occ(13,5,8) occ(14,5,4) occ(20,5,1) occ(26,5,2) occ(29,5,6) occ(36,5,3) occ(11,6,6) occ(18,6,3) occ(19,6,4) occ(27,6,8) occ(32,6,2) occ(38,6,5) occ(5,7,6) occ(15,7,7) occ(28,7,3) occ(31,7,5) occ(17,8,5) occ(30,8,1) occ(33,8,7)
Optimization: -35
Answer: 4
occ(1,6,7) occ(1,8,3) occ(1,3,6) occ(1,2,8) occ(1,7,2) occ(1,3,1) occ(2,1,8) occ(3,5,5) coverage(37) occ(6,1,6) occ(10,1,2) occ(8,2,4) occ(14,2,1) occ(44,2,2) occ(4,3,7) occ(12,3,3) occ(22,3,2) occ(35,3,5) occ(42,3,4) occ(16,4,2) occ(21,4,5) occ(24,4,4) occ(34,4,1) occ(40,4,6) occ(13,5,8) occ(20,5,1) occ(23,5,7) occ(26,5,2) occ(29,5,6) occ(33,5,4) occ(36,5,3) occ(11,6,6) occ(18,6,3) occ(19,6,4) occ(27,6,8) occ(32,6,2) occ(38,6,5) occ(5,7,4) occ(9,7,8) occ(15,7,7) occ(25,7,6) occ(28,7,3) occ(31,7,5) occ(7,8,6) occ(17,8,5) occ(30,8,1)
Optimization: -37
Answer: 5
occ(1,6,7) occ(1,8,3) occ(1,3,6) occ(1,2,8) occ(1,7,2) occ(1,3,1) occ(2,1,8) occ(3,5,5) coverage(45) occ(6,1,6) occ(10,1,2) occ(39,1,5) occ(8,2,4) occ(14,2,1) occ(37,2,3) occ(41,2,7) occ(44,2,2) occ(4,3,7) occ(12,3,3) occ(22,3,2) occ(35,3,5) occ(42,3,4) occ(16,4,2) occ(21,4,5) occ(24,4,4) occ(34,4,1) occ(40,4,6) occ(43,4,8) occ(13,5,8) occ(20,5,1) occ(23,5,7) occ(26,5,2) occ(29,5,6) occ(33,5,4) occ(36,5,3) occ(11,6,6) occ(18,6,3) occ(19,6,4) occ(27,6,8) occ(32,6,2) occ(38,6,5) occ(5,7,4) occ(9,7,8) occ(15,7,7) occ(25,7,6) occ(28,7,3) occ(31,7,5) occ(7,8,6) occ(17,8,5) occ(30,8,1)
Optimization: -45
Answer: 6
occ(1,6,7) occ(1,8,3) occ(1,3,6) occ(1,2,8) occ(1,7,2) occ(1,3,1) occ(2,1,8) occ(3,5,5) coverage(46) occ(6,1,6) occ(10,1,2) occ(37,1,4) occ(43,1,7) occ(47,1,3) occ(8,2,4) occ(14,2,1) occ(39,2,6) occ(44,2,2) occ(45,2,5) occ(4,3,7) occ(12,3,3) occ(22,3,2) occ(35,3,5) occ(41,3,8) occ(42,3,4) occ(16,4,2) occ(21,4,5) occ(24,4,4) occ(34,4,1) occ(40,4,6) occ(13,5,8) occ(20,5,1) occ(23,5,7) occ(26,5,2) occ(29,5,6) occ(33,5,4) occ(36,5,3) occ(11,6,6) occ(18,6,3) occ(19,6,4) occ(27,6,8) occ(32,6,2) occ(38,6,5) occ(5,7,4) occ(9,7,8) occ(15,7,7) occ(25,7,6) occ(28,7,3) occ(31,7,5) occ(7,8,6) occ(17,8,5) occ(30,8,1)
Optimization: -46
Answer: 7
occ(1,6,7) occ(1,8,3) occ(1,3,6) occ(1,2,8) occ(1,7,2) occ(1,3,1) occ(2,1,8) occ(3,5,5) coverage(47) occ(6,1,6) occ(10,1,2) occ(37,1,4) occ(43,1,7) occ(8,2,4) occ(14,2,1) occ(39,2,6) occ(44,2,2) occ(45,2,5) occ(4,3,7) occ(12,3,3) occ(22,3,2) occ(35,3,5) occ(41,3,8) occ(42,3,4) occ(16,4,2) occ(21,4,5) occ(24,4,4) occ(34,4,1) occ(40,4,6) occ(46,4,3) occ(13,5,8) occ(20,5,1) occ(23,5,7) occ(26,5,2) occ(29,5,6) occ(33,5,4) occ(36,5,3) occ(11,6,6) occ(18,6,3) occ(19,6,4) occ(27,6,8) occ(32,6,2) occ(38,6,5) occ(5,7,4) occ(9,7,8) occ(15,7,7) occ(25,7,6) occ(28,7,3) occ(31,7,5) occ(7,8,6) occ(17,8,5) occ(30,8,1)
Optimization: -47
Answer: 8
occ(1,6,7) occ(1,8,3) occ(1,3,6) occ(1,2,8) occ(1,7,2) occ(1,3,1) occ(2,1,8) occ(3,5,5) coverage(48) occ(6,1,6) occ(10,1,2) occ(37,1,4) occ(43,1,7) occ(47,1,3) occ(8,2,4) occ(14,2,1) occ(39,2,6) occ(44,2,2) occ(45,2,5) occ(4,3,7) occ(12,3,3) occ(22,3,2) occ(35,3,5) occ(41,3,8) occ(42,3,4) occ(16,4,2) occ(21,4,5) occ(24,4,4) occ(34,4,1) occ(40,4,6) occ(46,4,3) occ(13,5,8) occ(20,5,1) occ(23,5,7) occ(26,5,2) occ(29,5,6) occ(33,5,4) occ(36,5,3) occ(11,6,6) occ(18,6,3) occ(19,6,4) occ(27,6,8) occ(32,6,2) occ(38,6,5) occ(5,7,4) occ(9,7,8) occ(15,7,7) occ(25,7,6) occ(28,7,3) occ(31,7,5) occ(7,8,6) occ(17,8,5) occ(30,8,1)
Optimization: -48
Answer: 9
occ(1,6,7) occ(1,8,3) occ(1,3,6) occ(1,2,8) occ(1,7,2) occ(1,3,1) occ(2,1,8) occ(3,5,5) coverage(49) occ(6,1,4) occ(12,1,5) occ(18,1,6) occ(47,1,3) occ(4,2,6) occ(8,2,2) occ(14,2,7) occ(20,2,4) occ(38,2,3) occ(45,2,5) occ(10,3,4) occ(16,3,5) occ(17,3,8) occ(22,3,2) occ(31,3,3) occ(43,3,7) occ(5,4,7) occ(9,4,5) occ(19,4,6) occ(26,4,3) occ(33,4,1) occ(36,4,4) occ(40,4,2) occ(11,5,3) occ(15,5,7) occ(21,5,8) occ(24,5,1) occ(29,5,2) occ(37,5,4) occ(41,5,6) occ(7,6,6) occ(13,6,5) occ(28,6,4) occ(34,6,3) occ(35,6,2) occ(42,6,1) occ(23,7,7) occ(27,7,3) occ(30,7,6) occ(39,7,5) occ(46,7,4) occ(50,7,8) occ(25,8,5) occ(32,8,4) occ(44,8,2) occ(48,8,6)
Optimization: -49
Answer: 10
occ(1,6,7) occ(1,8,3) occ(1,3,6) occ(1,2,8) occ(1,7,2) occ(1,3,1) occ(2,1,8) occ(3,5,5) coverage(50) occ(39,1,1) occ(43,1,3) occ(49,1,4) occ(4,2,6) occ(8,2,4) occ(12,2,2) occ(37,2,3) occ(42,2,5) occ(45,2,1) occ(14,3,4) occ(21,3,8) occ(35,3,5) occ(40,3,7) occ(41,3,2) occ(47,3,3) occ(5,4,7) occ(6,4,5) occ(10,4,3) occ(16,4,2) occ(19,4,6) occ(26,4,1) occ(44,4,4) occ(17,5,4) occ(23,5,7) occ(24,5,3) occ(33,5,6) occ(38,5,8) occ(46,5,2) occ(7,6,8) occ(11,6,4) occ(18,6,3) occ(22,6,1) occ(27,6,6) occ(28,6,2) occ(34,6,5) occ(9,7,6) occ(15,7,3) occ(25,7,8) occ(30,7,4) occ(31,7,5) occ(36,7,7) occ(48,7,1) occ(13,8,5) occ(20,8,2) occ(29,8,7) occ(32,8,6)
Optimization: -50
Answer: 11
occ(1,6,7) occ(1,8,3) occ(1,3,6) occ(1,2,8) occ(1,7,2) occ(1,3,1) occ(2,1,8) occ(3,5,5) coverage(51) occ(8,1,3) occ(18,1,6) occ(22,1,2) occ(38,1,4) occ(44,1,5) occ(4,2,6) occ(14,2,5) occ(20,2,4) occ(36,2,2) occ(42,2,3) occ(46,2,7) occ(6,3,4) occ(10,3,2) occ(16,3,7) occ(24,3,3) occ(40,3,5) occ(5,4,7) occ(12,4,4) occ(13,4,5) occ(26,4,1) occ(31,4,2) occ(34,4,3) occ(48,4,6) occ(11,5,7) occ(17,5,6) occ(28,5,3) occ(29,5,4) occ(41,5,2) occ(50,5,8) occ(7,6,8) occ(15,6,4) occ(23,6,6) occ(32,6,2) occ(33,6,1) occ(37,6,3) occ(45,6,5) occ(9,7,6) occ(19,7,7) occ(27,7,5) occ(30,7,4) occ(39,7,1) occ(43,7,3) occ(49,7,8) occ(21,8,5) occ(25,8,7) occ(35,8,2) occ(47,8,6)
Optimization: -51
Answer: 12
occ(1,6,7) occ(1,8,3) occ(1,3,6) occ(1,2,8) occ(1,7,2) occ(1,3,1) occ(2,1,8) occ(3,5,5) coverage(54) occ(6,1,6) occ(10,1,2) occ(15,1,7) occ(20,1,3) occ(26,1,4) occ(51,1,1) occ(55,1,5) occ(8,2,4) occ(17,2,5) occ(18,2,1) occ(24,2,6) occ(43,2,2) occ(50,2,7) occ(53,2,3) occ(4,3,7) occ(12,3,3) occ(13,3,8) occ(22,3,4) occ(28,3,5) occ(49,3,2) occ(9,4,5) occ(16,4,2) occ(19,4,4) occ(30,4,7) occ(41,4,1) occ(45,4,3) occ(48,4,6) occ(52,4,8) occ(11,5,7) occ(14,5,4) occ(21,5,2) occ(34,5,6) occ(39,5,3) occ(46,5,8) occ(47,5,1) occ(7,6,4) occ(25,6,3) occ(31,6,2) occ(32,6,8) occ(37,6,5) occ(40,6,6) occ(5,7,6) occ(23,7,1) occ(29,7,4) occ(35,7,3) occ(36,7,5) occ(44,7,7) occ(27,8,2) occ(33,8,1) occ(38,8,7) occ(42,8,5)
Optimization: -54
Answer: 13
occ(1,6,7) occ(1,8,3) occ(1,3,6) occ(1,2,8) occ(1,7,2) occ(1,3,1) occ(2,1,8) occ(3,5,5) coverage(55) occ(6,1,6) occ(9,1,4) occ(10,1,2) occ(39,1,7) occ(47,1,3) occ(51,1,5) occ(7,2,6) occ(8,2,4) occ(11,2,2) occ(33,2,7) occ(41,2,5) occ(53,2,3) occ(4,3,7) occ(12,3,3) occ(37,3,8) occ(40,3,5) occ(45,3,2) occ(49,3,4) occ(5,4,7) occ(13,4,1) occ(17,4,5) occ(20,4,2) occ(31,4,8) occ(35,4,6) occ(42,4,3) occ(43,4,4) occ(14,5,2) occ(15,5,3) occ(19,5,7) occ(29,5,6) occ(38,5,4) occ(50,5,8) occ(18,6,3) occ(22,6,1) occ(23,6,8) occ(30,6,5) occ(36,6,2) occ(44,6,4) occ(52,6,6) occ(16,7,1) occ(21,7,6) occ(26,7,4) occ(27,7,5) occ(32,7,3) occ(48,7,7) occ(54,7,8) occ(24,8,2) occ(25,8,7) occ(28,8,6) occ(34,8,1) occ(46,8,5)
Optimization: -55
Answer: 14
occ(1,6,7) occ(1,8,3) occ(1,3,6) occ(1,2,8) occ(1,7,2) occ(1,3,1) occ(2,1,8) occ(3,5,5) coverage(56) occ(6,1,6) occ(9,1,4) occ(10,1,2) occ(39,1,7) occ(47,1,3) occ(51,1,5) occ(55,1,1) occ(7,2,6) occ(8,2,4) occ(11,2,2) occ(33,2,7) occ(41,2,5) occ(53,2,3) occ(4,3,7) occ(12,3,3) occ(37,3,8) occ(40,3,5) occ(45,3,2) occ(49,3,4) occ(5,4,7) occ(13,4,1) occ(17,4,5) occ(20,4,2) occ(31,4,8) occ(35,4,6) occ(42,4,3) occ(43,4,4) occ(14,5,2) occ(15,5,3) occ(19,5,7) occ(29,5,6) occ(38,5,4) occ(50,5,8) occ(18,6,3) occ(22,6,1) occ(23,6,8) occ(30,6,5) occ(36,6,2) occ(44,6,4) occ(52,6,6) occ(16,7,1) occ(21,7,6) occ(26,7,4) occ(27,7,5) occ(32,7,3) occ(48,7,7) occ(54,7,8) occ(24,8,2) occ(25,8,7) occ(28,8,6) occ(34,8,1) occ(46,8,5)
Optimization: -56
Answer: 15
occ(1,6,7) occ(1,8,3) occ(1,3,6) occ(1,2,8) occ(1,7,2) occ(1,3,1) occ(2,1,8) occ(3,5,5) coverage(57) occ(6,1,6) occ(9,1,4) occ(10,1,2) occ(39,1,7) occ(47,1,3) occ(51,1,5) occ(55,1,1) occ(7,2,6) occ(8,2,4) occ(14,2,1) occ(15,2,2) occ(33,2,7) occ(41,2,5) occ(53,2,3) occ(4,3,7) occ(11,3,5) occ(12,3,3) occ(37,3,8) occ(45,3,2) occ(49,3,4) occ(5,4,7) occ(13,4,3) occ(16,4,2) occ(17,4,1) occ(22,4,5) occ(31,4,8) occ(35,4,6) occ(43,4,4) occ(20,5,3) occ(21,5,4) occ(24,5,7) occ(29,5,6) occ(34,5,2) occ(50,5,8) occ(18,6,1) occ(19,6,2) occ(27,6,8) occ(30,6,5) occ(38,6,3) occ(44,6,4) occ(52,6,6) occ(23,7,5) occ(26,7,8) occ(32,7,3) occ(36,7,1) occ(42,7,6) occ(48,7,7) occ(54,7,4) occ(25,8,7) occ(28,8,6) occ(40,8,4) occ(46,8,5) occ(56,8,2)
Optimization: -57
Answer: 16
occ(1,6,7) occ(1,8,3) occ(1,3,6) occ(1,2,8) occ(1,7,2) occ(1,3,1) occ(2,1,8) occ(3,5,5) coverage(58) occ(6,1,6) occ(9,1,4) occ(10,1,2) occ(15,1,5) occ(39,1,7) occ(47,1,3) occ(7,2,6) occ(8,2,4) occ(11,2,2) occ(17,2,3) occ(33,2,7) occ(41,2,5) occ(49,2,1) occ(4,3,7) occ(12,3,3) occ(13,3,4) occ(19,3,5) occ(37,3,8) occ(45,3,2) occ(5,4,7) occ(31,4,8) occ(35,4,6) occ(38,4,1) occ(42,4,5) occ(43,4,4) occ(51,4,2) occ(54,4,3) occ(14,5,2) occ(21,5,4) occ(24,5,7) occ(29,5,6) occ(40,5,3) occ(46,5,8) occ(56,5,1) occ(18,6,3) occ(27,6,8) occ(30,6,5) occ(36,6,2) occ(44,6,6) occ(52,6,4) occ(53,6,1) occ(16,7,1) occ(22,7,6) occ(23,7,5) occ(26,7,8) occ(32,7,3) occ(48,7,7) occ(57,7,4) occ(20,8,4) occ(25,8,7) occ(28,8,6) occ(34,8,1) occ(50,8,5) occ(55,8,2)
Optimization: -58
*** Info : (clingo): INTERRUPTED by signal!
SATISFIABLE

TIME LIMIT   : 1
Models       : 16+
  Optimum    : unknown
Optimization : -58
Calls        : 1
Time         : 299.999s (Solving: 299.68s 1st Model: 0.00s Unsat: 0.00s)
CPU Time     : 299.988s
